49
7	8	14	15	17	18	19	21	24	25	28	29	30	33	34	37	38	41	47	48	0
3	5	6	8	9	12	13	20	22	23	28	29	31	32	34	36	37	39	41	42	43	46	48	49	0
2	4	6	9	11	13	17	18	19	20	23	24	26	27	28	29	32	35	40	41	42	43	45	46	48	49	0
3	5	7	9	12	16	19	20	22	23	26	27	28	29	30	31	34	35	37	39	40	43	44	48	0
2	4	10	11	12	14	18	19	21	22	23	27	28	30	32	33	34	36	38	39	40	41	45	46	47	48	49	0
2	3	7	12	14	15	20	23	24	25	29	30	31	33	35	38	42	45	46	47	0
1	4	6	8	9	10	11	12	13	14	15	20	21	25	29	30	31	33	35	37	41	44	45	0
1	2	7	14	18	19	21	23	29	31	32	36	37	40	44	46	48	0
2	3	4	7	10	19	20	22	24	25	26	29	30	33	34	36	37	41	43	45	48	49	0
5	7	9	11	12	13	14	18	23	24	25	27	29	31	34	35	36	41	44	47	48	49	0
3	5	7	10	14	16	17	18	19	23	24	29	34	35	36	37	40	42	43	45	46	49	0
2	4	5	6	7	10	14	15	16	17	18	19	24	26	28	31	33	36	41	42	45	46	47	0
2	3	7	10	14	15	17	20	28	30	31	33	34	40	41	43	47	48	49	0
1	5	6	7	8	10	11	12	13	15	17	18	20	21	23	24	25	30	33	34	35	36	37	38	40	43	48	0
1	6	7	12	13	14	18	20	22	24	27	28	30	31	32	33	39	41	42	44	46	47	48	49	0
4	11	12	20	22	23	24	26	29	32	33	35	36	38	40	42	45	47	49	0
1	3	11	12	13	14	19	20	23	24	27	31	32	33	37	40	41	43	45	49	0
1	3	5	8	10	11	12	14	15	19	22	24	25	27	28	30	32	38	40	44	46	47	0
1	3	4	5	8	9	11	12	17	18	20	21	23	26	30	32	33	34	37	38	40	42	45	47	48	49	0
2	3	4	6	7	9	13	14	15	16	17	19	21	24	31	34	35	36	38	39	40	42	43	44	45	46	47	48	0
1	5	7	8	14	19	20	22	24	29	30	31	32	34	35	36	38	39	42	44	45	46	47	48	49	0
2	4	5	9	15	16	18	21	25	26	27	30	31	33	34	45	46	49	0
2	3	4	5	6	8	10	11	14	16	17	19	24	25	27	29	31	35	39	40	43	46	47	48	49	0
1	3	6	9	10	11	12	14	15	16	17	18	20	21	23	25	27	28	30	35	38	41	47	49	0
1	6	7	9	10	14	18	22	23	24	26	27	29	31	32	35	36	37	42	46	47	0
3	4	9	12	16	19	22	25	28	30	32	33	34	42	43	44	45	48	49	0
3	4	5	10	15	17	18	22	23	24	25	28	29	32	33	35	36	39	41	42	44	49	0
1	2	3	4	5	12	13	15	18	24	26	27	30	34	36	37	38	40	43	44	45	46	47	48	49	0
1	2	3	4	6	7	8	9	10	11	16	21	23	25	27	37	40	42	43	0
1	4	5	6	7	9	13	14	15	18	19	21	22	24	26	28	32	33	34	38	43	44	45	47	48	0
2	4	6	7	8	10	12	13	15	17	20	21	22	23	25	33	35	37	38	43	46	47	0
2	3	5	8	15	16	17	18	19	21	25	26	27	30	33	35	36	38	39	40	41	44	48	49	0
1	5	6	7	9	12	13	14	15	16	17	19	22	26	27	30	31	32	34	38	39	44	45	46	48	49	0
1	2	4	5	9	10	11	13	14	19	20	21	22	26	28	30	33	36	37	38	39	40	44	45	47	48	0
3	4	6	7	10	11	14	16	20	21	23	24	25	27	31	32	36	37	39	40	42	43	45	0
2	5	8	9	10	11	12	14	16	20	21	25	27	28	32	34	35	37	38	40	41	44	45	46	48	49	0
1	2	4	7	8	9	11	14	17	19	25	28	29	31	34	35	36	40	41	42	43	44	49	0
1	5	6	14	16	18	19	20	21	24	28	30	31	32	33	34	36	43	44	46	49	0
2	4	5	15	20	21	23	27	32	33	34	35	40	43	49	0
3	4	5	8	11	13	14	16	17	18	19	20	23	28	29	32	34	35	36	37	39	41	44	45	48	49	0
1	2	3	5	7	9	10	12	13	15	17	24	27	32	36	37	40	48	0
2	3	6	11	12	15	16	19	20	21	25	26	27	29	35	37	44	46	47	48	49	0
2	3	4	9	11	13	14	17	20	23	26	28	29	30	31	35	37	38	39	44	0
4	7	8	10	15	18	20	21	26	27	28	30	32	33	34	36	37	38	40	42	43	45	46	48	49	0
3	5	6	7	9	11	12	16	17	19	20	21	22	26	28	30	33	34	35	36	40	44	48	49	0
2	3	5	6	8	11	12	15	18	20	21	22	23	25	28	31	33	36	38	42	44	47	49	0
1	5	6	10	12	13	15	16	18	19	20	21	23	24	25	28	30	31	34	42	46	48	49	0
1	2	3	4	5	8	9	10	13	14	15	19	20	21	23	26	28	30	32	33	34	36	40	41	42	44	45	47	49	0
2	3	5	9	10	11	13	15	16	17	19	21	22	23	24	26	27	28	32	33	36	37	38	39	40	42	44	45	46	47	48	0


comments:
random graph
nodes 49
edges 562
